p cnf 180 459
a 3 6 12 14 17 20 2 33 45 47 117 129 54 56 63 65 1 11 26 31 38 44 53 62 0
d 93 1 11 0
d 116 38 44 0
d 97 26 31 0
d 171 53 62 0
d 4 3 0
d 5 2 3 0
d 7 6 0
d 8 2 3 6 0
d 9 1 2 3 6 0
d 10 1 2 3 6 0
d 13 12 0
d 15 14 0
d 16 12 14 0
d 18 17 0
d 19 12 14 17 0
d 21 20 0
d 22 12 14 17 20 0
d 23 11 12 14 17 20 0
d 24 11 12 14 17 20 0
d 25 1 2 3 6 11 12 14 17 20 0
d 27 17 20 0
d 28 26 17 20 0
d 29 26 17 20 0
d 30 1 2 3 6 11 12 14 17 20 26 0
d 32 2 0
d 34 2 33 0
d 35 31 2 33 0
d 36 31 2 33 0
d 37 1 2 3 6 11 12 14 17 20 26 31 33 0
d 39 33 0
d 40 2 33 0
d 41 38 2 33 0
d 42 38 2 33 0
d 43 1 2 3 6 11 12 14 17 20 26 31 33 38 0
d 46 45 0
d 48 47 0
d 49 45 47 0
d 50 44 45 47 0
d 51 44 45 47 0
d 52 1 2 3 6 11 12 14 17 20 26 31 33 38 44 45 47 0
d 55 54 0
d 57 56 0
d 58 54 56 0
d 59 53 54 56 0
d 60 53 54 56 0
d 61 1 2 3 6 11 12 14 17 20 26 31 33 38 44 45 47 53 54 56 0
d 64 63 0
d 66 63 65 0
d 67 62 63 65 0
d 68 62 63 65 0
d 69 1 2 3 6 11 12 14 17 20 26 31 33 38 44 45 47 53 54 56 62 63 65 0
d 70 3 0
d 71 3 6 0
d 72 3 6 0
d 73 3 6 0
d 74 12 3 0
d 75 12 3 6 0
d 76 12 3 6 0
d 77 3 6 12 0
d 78 3 6 0
d 79 3 6 12 0
d 80 3 6 12 14 0
d 81 3 6 12 14 0
d 82 3 6 12 14 0
d 83 17 3 0
d 84 17 3 6 0
d 85 12 14 17 3 6 0
d 86 12 14 17 3 6 0
d 87 3 6 12 14 17 0
d 88 17 20 0
d 89 3 6 12 14 0
d 90 17 20 3 6 12 14 0
d 91 17 20 3 6 12 14 0
d 92 3 6 12 14 17 20 0
d 94 2 3 6 12 14 17 20 0
d 95 1 11 2 3 6 12 14 17 20 0
d 96 3 6 12 14 17 20 1 11 2 0
d 98 3 6 12 14 26 31 0
d 99 17 20 2 0
d 100 17 20 2 33 0
d 101 3 6 12 14 17 20 2 33 0
d 102 3 6 12 14 26 31 17 20 2 33 0
d 103 3 6 12 14 17 20 1 11 2 26 31 33 0
d 104 45 3 0
d 105 45 3 6 0
d 106 2 33 45 3 6 0
d 107 12 14 17 20 2 33 45 3 6 0
d 108 12 14 17 20 2 33 45 3 6 0
d 109 3 6 12 14 17 20 1 11 2 26 31 33 45 0
d 110 17 20 2 33 0
d 111 45 47 0
d 112 45 47 3 6 12 14 0
d 113 17 20 2 33 45 47 3 6 12 14 0
d 114 17 20 2 33 45 47 3 6 12 14 0
d 115 3 6 12 14 17 20 1 11 2 26 31 33 45 47 0
d 118 117 3 0
d 119 117 3 6 0
d 120 117 3 6 12 14 17 20 0
d 121 38 44 117 3 6 12 14 17 20 0
d 122 2 33 45 0
d 123 2 33 45 47 0
d 124 2 33 45 47 117 3 6 12 14 17 20 0
d 125 38 44 117 3 6 12 14 17 20 2 33 45 47 0
d 126 3 6 12 14 17 20 1 11 2 26 31 33 45 47 38 44 117 0
d 127 117 0
d 128 45 47 117 0
d 130 45 47 117 129 0
d 131 3 6 12 14 17 20 2 33 0
d 132 45 47 117 129 3 6 12 14 17 20 2 33 0
d 133 45 47 117 129 3 6 12 14 17 20 2 33 0
d 134 3 6 12 14 17 20 1 11 2 26 31 33 45 47 38 44 117 129 0
d 135 117 129 0
d 136 54 3 0
d 137 54 3 6 0
d 138 117 129 54 3 6 0
d 139 12 14 17 20 38 44 0
d 140 117 129 54 3 6 12 14 17 20 38 44 0
d 141 129 0
d 142 117 129 0
d 143 117 129 54 3 6 0
d 144 12 14 17 20 2 33 45 47 0
d 145 117 129 54 3 6 12 14 17 20 2 33 45 47 0
d 146 117 129 54 3 6 12 14 17 20 38 44 2 33 45 47 0
d 147 3 6 12 14 17 20 1 11 2 26 31 33 45 47 38 44 117 129 54 0
d 148 54 56 0
d 149 54 56 3 6 12 14 0
d 150 45 47 117 129 0
d 151 17 20 2 33 45 47 117 129 0
d 152 54 56 3 6 12 14 17 20 2 33 45 47 117 129 0
d 153 45 47 117 129 0
d 154 17 20 2 33 45 47 117 129 0
d 155 54 56 3 6 12 14 17 20 2 33 45 47 117 129 0
d 156 54 56 3 6 12 14 17 20 2 33 45 47 117 129 0
d 157 3 6 12 14 17 20 1 11 2 26 31 33 45 47 38 44 117 129 54 56 0
d 158 63 3 0
d 159 63 3 6 0
d 160 63 3 6 12 14 17 20 0
d 161 117 129 54 0
d 162 117 129 54 56 0
d 163 38 44 117 129 54 56 0
d 164 63 3 6 12 14 17 20 38 44 117 129 54 56 0
d 165 117 129 54 0
d 166 117 129 54 56 0
d 167 2 33 45 47 117 129 54 56 0
d 168 63 3 6 12 14 17 20 2 33 45 47 117 129 54 56 0
d 169 63 3 6 12 14 17 20 38 44 117 129 54 56 2 33 45 47 0
d 170 3 6 12 14 17 20 1 11 2 26 31 33 45 47 38 44 117 129 54 56 63 0
d 172 45 47 117 129 53 62 0
d 173 3 6 12 14 17 20 2 33 45 47 117 129 53 62 0
d 174 54 56 63 0
d 175 54 56 63 65 0
d 176 45 47 117 129 54 56 63 65 0
d 177 3 6 12 14 17 20 2 33 45 47 117 129 54 56 63 65 0
d 178 3 6 12 14 17 20 2 33 45 47 117 129 53 62 54 56 63 65 0
d 179 3 6 12 14 17 20 1 11 2 26 31 33 45 47 38 44 117 129 54 56 63 53 62 65 0
d 180 1 2 3 6 11 12 14 17 20 26 31 33 38 44 45 47 53 54 56 62 63 65 117 129 0
4 3 0
-4 -3 0
-5 2 0
-5 4 0
5 -2 -4 0
7 6 0
-7 -6 0
-8 5 0
-8 7 0
8 -5 -7 0
9 -1 -8 0
9 1 8 0
-9 -1 8 0
-9 1 -8 0
10 9 0
-10 -9 0
13 12 0
-13 -12 0
15 14 0
-15 -14 0
-16 13 0
-16 15 0
16 -13 -15 0
18 17 0
-18 -17 0
-19 16 0
-19 18 0
19 -16 -18 0
21 20 0
-21 -20 0
-22 19 0
-22 21 0
22 -19 -21 0
23 -11 -22 0
23 11 22 0
-23 -11 22 0
-23 11 -22 0
24 23 0
-24 -23 0
25 -10 0
25 -24 0
-25 10 24 0
-27 18 0
-27 21 0
27 -18 -21 0
28 -26 -27 0
28 26 27 0
-28 -26 27 0
-28 26 -27 0
29 28 0
-29 -28 0
30 -25 0
30 -29 0
-30 25 29 0
32 2 0
-32 -2 0
-34 32 0
-34 33 0
34 -32 -33 0
35 -31 -34 0
35 31 34 0
-35 -31 34 0
-35 31 -34 0
36 35 0
-36 -35 0
37 -30 0
37 -36 0
-37 30 36 0
39 33 0
-39 -33 0
-40 32 0
-40 39 0
40 -32 -39 0
41 -38 -40 0
41 38 40 0
-41 -38 40 0
-41 38 -40 0
42 41 0
-42 -41 0
43 -37 0
43 -42 0
-43 37 42 0
46 45 0
-46 -45 0
48 47 0
-48 -47 0
-49 46 0
-49 48 0
49 -46 -48 0
50 -44 -49 0
50 44 49 0
-50 -44 49 0
-50 44 -49 0
51 50 0
-51 -50 0
52 -43 0
52 -51 0
-52 43 51 0
55 54 0
-55 -54 0
57 56 0
-57 -56 0
-58 55 0
-58 57 0
58 -55 -57 0
59 -53 -58 0
59 53 58 0
-59 -53 58 0
-59 53 -58 0
60 59 0
-60 -59 0
61 -52 0
61 -60 0
-61 52 60 0
64 63 0
-64 -63 0
-66 64 0
-66 65 0
66 -64 -65 0
67 -62 -66 0
67 62 66 0
-67 -62 66 0
-67 62 -66 0
68 67 0
-68 -67 0
69 -61 0
69 -68 0
-69 61 68 0
70 -3 -3 0
70 3 3 0
-70 -3 3 0
-70 3 -3 0
-71 4 0
-71 6 0
71 -4 -6 0
72 -71 -71 0
72 71 71 0
-72 -71 71 0
-72 71 -71 0
-73 70 0
-73 72 0
73 -70 -72 0
-74 12 0
-74 4 0
74 -12 -4 0
-75 74 0
-75 7 0
75 -74 -7 0
76 -75 -75 0
76 75 75 0
-76 -75 75 0
-76 75 -75 0
-77 73 0
-77 76 0
77 -73 -76 0
-78 4 0
-78 7 0
78 -4 -7 0
-79 78 0
-79 13 0
79 -78 -13 0
-80 79 0
-80 14 0
80 -79 -14 0
81 -80 -80 0
81 80 80 0
-81 -80 80 0
-81 80 -80 0
-82 77 0
-82 81 0
82 -77 -81 0
-83 17 0
-83 4 0
83 -17 -4 0
-84 83 0
-84 7 0
84 -83 -7 0
-85 16 0
-85 84 0
85 -16 -84 0
86 -85 -85 0
86 85 85 0
-86 -85 85 0
-86 85 -85 0
-87 82 0
-87 86 0
87 -82 -86 0
-88 18 0
-88 20 0
88 -18 -20 0
-89 79 0
-89 15 0
89 -79 -15 0
-90 88 0
-90 89 0
90 -88 -89 0
91 -90 -90 0
91 90 90 0
-91 -90 90 0
-91 90 -90 0
-92 87 0
-92 91 0
92 -87 -91 0
-94 8 0
-94 22 0
94 -8 -22 0
95 -93 -94 0
95 93 94 0
-95 -93 94 0
-95 93 -94 0
-96 92 0
-96 95 0
96 -92 -95 0
-98 89 0
-98 97 0
98 -89 -97 0
-99 27 0
-99 32 0
99 -27 -32 0
-100 99 0
-100 33 0
100 -99 -33 0
-101 89 0
-101 100 0
101 -89 -100 0
102 -98 -101 0
102 98 101 0
-102 -98 101 0
-102 98 -101 0
-103 96 0
-103 102 0
103 -96 -102 0
-104 45 0
-104 4 0
104 -45 -4 0
-105 104 0
-105 7 0
105 -104 -7 0
-106 40 0
-106 105 0
106 -40 -105 0
-107 22 0
-107 106 0
107 -22 -106 0
108 -107 -107 0
108 107 107 0
-108 -107 107 0
-108 107 -107 0
-109 103 0
-109 108 0
109 -103 -108 0
-110 99 0
-110 39 0
110 -99 -39 0
-111 46 0
-111 47 0
111 -46 -47 0
-112 111 0
-112 89 0
112 -111 -89 0
-113 110 0
-113 112 0
113 -110 -112 0
114 -113 -113 0
114 113 113 0
-114 -113 113 0
-114 113 -113 0
-115 109 0
-115 114 0
115 -109 -114 0
-118 117 0
-118 4 0
118 -117 -4 0
-119 118 0
-119 7 0
119 -118 -7 0
-120 119 0
-120 22 0
120 -119 -22 0
-121 116 0
-121 120 0
121 -116 -120 0
-122 40 0
-122 46 0
122 -40 -46 0
-123 122 0
-123 48 0
123 -122 -48 0
-124 123 0
-124 120 0
124 -123 -120 0
125 -121 -124 0
125 121 124 0
-125 -121 124 0
-125 121 -124 0
-126 115 0
-126 125 0
126 -115 -125 0
127 117 0
-127 -117 0
-128 49 0
-128 127 0
128 -49 -127 0
-130 128 0
-130 129 0
130 -128 -129 0
-131 89 0
-131 110 0
131 -89 -110 0
-132 130 0
-132 131 0
132 -130 -131 0
133 -132 -132 0
133 132 132 0
-133 -132 132 0
-133 132 -132 0
-134 126 0
-134 133 0
134 -126 -133 0
135 -117 129 0
135 117 -129 0
-135 -117 -129 0
-135 117 129 0
-136 54 0
-136 4 0
136 -54 -4 0
-137 136 0
-137 7 0
137 -136 -7 0
-138 135 0
-138 137 0
138 -135 -137 0
-139 22 0
-139 116 0
139 -22 -116 0
-140 138 0
-140 139 0
140 -138 -139 0
141 129 0
-141 -129 0
-142 127 0
-142 141 0
142 -127 -141 0
-143 142 0
-143 137 0
143 -142 -137 0
-144 22 0
-144 123 0
144 -22 -123 0
-145 143 0
-145 144 0
145 -143 -144 0
146 -140 -145 0
146 140 145 0
-146 -140 145 0
-146 140 -145 0
-147 134 0
-147 146 0
147 -134 -146 0
-148 55 0
-148 56 0
148 -55 -56 0
-149 148 0
-149 89 0
149 -148 -89 0
-150 49 0
-150 135 0
150 -49 -135 0
-151 110 0
-151 150 0
151 -110 -150 0
-152 149 0
-152 151 0
152 -149 -151 0
-153 128 0
-153 141 0
153 -128 -141 0
-154 110 0
-154 153 0
154 -110 -153 0
-155 149 0
-155 154 0
155 -149 -154 0
156 -152 -155 0
156 152 155 0
-156 -152 155 0
-156 152 -155 0
-157 147 0
-157 156 0
157 -147 -156 0
-158 63 0
-158 4 0
158 -63 -4 0
-159 158 0
-159 7 0
159 -158 -7 0
-160 159 0
-160 22 0
160 -159 -22 0
-161 135 0
-161 55 0
161 -135 -55 0
-162 161 0
-162 57 0
162 -161 -57 0
-163 116 0
-163 162 0
163 -116 -162 0
-164 160 0
-164 163 0
164 -160 -163 0
-165 142 0
-165 55 0
165 -142 -55 0
-166 165 0
-166 57 0
166 -165 -57 0
-167 123 0
-167 166 0
167 -123 -166 0
-168 160 0
-168 167 0
168 -160 -167 0
169 -164 -168 0
169 164 168 0
-169 -164 168 0
-169 164 -168 0
-170 157 0
-170 169 0
170 -157 -169 0
-172 150 0
-172 171 0
172 -150 -171 0
-173 131 0
-173 172 0
173 -131 -172 0
-174 58 0
-174 64 0
174 -58 -64 0
-175 174 0
-175 65 0
175 -174 -65 0
-176 153 0
-176 175 0
176 -153 -175 0
-177 131 0
-177 176 0
177 -131 -176 0
178 -173 -177 0
178 173 177 0
-178 -173 177 0
-178 173 -177 0
-179 170 0
-179 178 0
179 -170 -178 0
180 -69 0
180 -179 0
-180 69 179 0
180 0
